N = 4;

pezzi = [|
0, 3, 1, 3|
4, 6, 0, 6|
2, 5, 6, 8|
5, 2, 6, 4|
7, 1, 5, 2|
1, 8, 2, 7|
6, 6, 8, 3|
9, 5, 7, 7|
8, 8, 9, 3|
4, 3, 0, 0|
3, 7, 5, 8|
9, 8, 4, 8|
0, 8, 3, 8|
4, 4, 7, 5|
7, 1, 9, 8|
8, 4, 7, 6|];